p cnf 507 1479
c inputs: 1 2 3 4 5 6 7 8 9 10 11 12 13 14
c variables for gates: 15 ... 493
c outputs: 494 495 496 497 498 499 500 501 502 503 504 505 506 507
c random input: 1 -2 3 -4 -5 -6 -7 8 9 -10 11 12 -13 14
15 -1 -8 0
-15 1 0
-15 8 0
16 -2 -8 0
-16 2 0
-16 8 0
17 -3 -8 0
-17 3 0
-17 8 0
18 -4 -8 0
-18 4 0
-18 8 0
19 -5 -8 0
-19 5 0
-19 8 0
20 -6 -8 0
-20 6 0
-20 8 0
21 -7 -8 0
-21 7 0
-21 8 0
22 -1 -9 0
-22 1 0
-22 9 0
23 -2 -9 0
-23 2 0
-23 9 0
24 -3 -9 0
-24 3 0
-24 9 0
25 -4 -9 0
-25 4 0
-25 9 0
26 -5 -9 0
-26 5 0
-26 9 0
27 -6 -9 0
-27 6 0
-27 9 0
28 -7 -9 0
-28 7 0
-28 9 0
29 -1 -10 0
-29 1 0
-29 10 0
30 -2 -10 0
-30 2 0
-30 10 0
31 -3 -10 0
-31 3 0
-31 10 0
32 -4 -10 0
-32 4 0
-32 10 0
33 -5 -10 0
-33 5 0
-33 10 0
34 -6 -10 0
-34 6 0
-34 10 0
35 -7 -10 0
-35 7 0
-35 10 0
36 -1 -11 0
-36 1 0
-36 11 0
37 -2 -11 0
-37 2 0
-37 11 0
38 -3 -11 0
-38 3 0
-38 11 0
39 -4 -11 0
-39 4 0
-39 11 0
40 -5 -11 0
-40 5 0
-40 11 0
41 -6 -11 0
-41 6 0
-41 11 0
42 -7 -11 0
-42 7 0
-42 11 0
43 -1 -12 0
-43 1 0
-43 12 0
44 -2 -12 0
-44 2 0
-44 12 0
45 -3 -12 0
-45 3 0
-45 12 0
46 -4 -12 0
-46 4 0
-46 12 0
47 -5 -12 0
-47 5 0
-47 12 0
48 -6 -12 0
-48 6 0
-48 12 0
49 -7 -12 0
-49 7 0
-49 12 0
50 -1 -13 0
-50 1 0
-50 13 0
51 -2 -13 0
-51 2 0
-51 13 0
52 -3 -13 0
-52 3 0
-52 13 0
53 -4 -13 0
-53 4 0
-53 13 0
54 -5 -13 0
-54 5 0
-54 13 0
55 -6 -13 0
-55 6 0
-55 13 0
56 -7 -13 0
-56 7 0
-56 13 0
57 -1 -14 0
-57 1 0
-57 14 0
58 -2 -14 0
-58 2 0
-58 14 0
59 -3 -14 0
-59 3 0
-59 14 0
60 -4 -14 0
-60 4 0
-60 14 0
61 -5 -14 0
-61 5 0
-61 14 0
62 -6 -14 0
-62 6 0
-62 14 0
63 -7 -14 0
-63 7 0
-63 14 0
64 -16 -22 0
-64 16 0
-64 22 0
65 -16 22 0
-65 16 0
-65 -22 0
66 -22 16 0
-66 22 0
-66 -16 0
67 66 65 0
-67 -66 0
-67 -65 0
68 -23 -17 0
-68 23 0
-68 17 0
69 -17 -29 0
-69 17 0
-69 29 0
70 -23 -29 0
-70 23 0
-70 29 0
71 69 70 0
-71 -69 0
-71 -70 0
72 68 -71 0
-72 -68 0
-72 71 0
73 -23 29 0
-73 23 0
-73 -29 0
74 -29 23 0
-74 29 0
-74 -23 0
75 74 73 0
-75 -74 0
-75 -73 0
76 -17 -75 0
-76 17 0
-76 75 0
77 17 75 0
-77 -17 0
-77 -75 0
78 76 77 0
-78 -76 0
-78 -77 0
79 -18 -24 0
-79 18 0
-79 24 0
80 -18 -30 0
-80 18 0
-80 30 0
81 -30 -24 0
-81 30 0
-81 24 0
82 80 81 0
-82 -80 0
-82 -81 0
83 79 -82 0
-83 -79 0
-83 82 0
84 -24 30 0
-84 24 0
-84 -30 0
85 -30 24 0
-85 30 0
-85 -24 0
86 84 85 0
-86 -84 0
-86 -85 0
87 -18 -86 0
-87 18 0
-87 86 0
88 18 86 0
-88 -18 0
-88 -86 0
89 87 88 0
-89 -87 0
-89 -88 0
90 -25 -19 0
-90 25 0
-90 19 0
91 -19 -31 0
-91 19 0
-91 31 0
92 -25 -31 0
-92 25 0
-92 31 0
93 92 91 0
-93 -92 0
-93 -91 0
94 90 -93 0
-94 -90 0
-94 93 0
95 -25 31 0
-95 25 0
-95 -31 0
96 -31 25 0
-96 31 0
-96 -25 0
97 96 95 0
-97 -96 0
-97 -95 0
98 -19 -97 0
-98 19 0
-98 97 0
99 19 97 0
-99 -19 0
-99 -97 0
100 98 99 0
-100 -98 0
-100 -99 0
101 -20 -26 0
-101 20 0
-101 26 0
102 -20 -32 0
-102 20 0
-102 32 0
103 -32 -26 0
-103 32 0
-103 26 0
104 103 102 0
-104 -103 0
-104 -102 0
105 101 -104 0
-105 -101 0
-105 104 0
106 -26 32 0
-106 26 0
-106 -32 0
107 -32 26 0
-107 32 0
-107 -26 0
108 106 107 0
-108 -106 0
-108 -107 0
109 -20 -108 0
-109 20 0
-109 108 0
110 20 108 0
-110 -20 0
-110 -108 0
111 109 110 0
-111 -109 0
-111 -110 0
112 -27 -21 0
-112 27 0
-112 21 0
113 -21 -33 0
-113 21 0
-113 33 0
114 -27 -33 0
-114 27 0
-114 33 0
115 113 114 0
-115 -113 0
-115 -114 0
116 112 -115 0
-116 -112 0
-116 115 0
117 -27 33 0
-117 27 0
-117 -33 0
118 -33 27 0
-118 33 0
-118 -27 0
119 117 118 0
-119 -117 0
-119 -118 0
120 -21 -119 0
-120 21 0
-120 119 0
121 21 119 0
-121 -21 0
-121 -119 0
122 120 121 0
-122 -120 0
-122 -121 0
123 -34 -28 0
-123 34 0
-123 28 0
124 -28 34 0
-124 28 0
-124 -34 0
125 -34 28 0
-125 34 0
-125 -28 0
126 125 124 0
-126 -125 0
-126 -124 0
127 -37 -43 0
-127 37 0
-127 43 0
128 -37 43 0
-128 37 0
-128 -43 0
129 -43 37 0
-129 43 0
-129 -37 0
130 129 128 0
-130 -129 0
-130 -128 0
131 -44 -38 0
-131 44 0
-131 38 0
132 -38 -50 0
-132 38 0
-132 50 0
133 -44 -50 0
-133 44 0
-133 50 0
134 132 133 0
-134 -132 0
-134 -133 0
135 131 -134 0
-135 -131 0
-135 134 0
136 -44 50 0
-136 44 0
-136 -50 0
137 -50 44 0
-137 50 0
-137 -44 0
138 137 136 0
-138 -137 0
-138 -136 0
139 -38 -138 0
-139 38 0
-139 138 0
140 38 138 0
-140 -38 0
-140 -138 0
141 139 140 0
-141 -139 0
-141 -140 0
142 -39 -45 0
-142 39 0
-142 45 0
143 -39 -51 0
-143 39 0
-143 51 0
144 -51 -45 0
-144 51 0
-144 45 0
145 143 144 0
-145 -143 0
-145 -144 0
146 142 -145 0
-146 -142 0
-146 145 0
147 -45 51 0
-147 45 0
-147 -51 0
148 -51 45 0
-148 51 0
-148 -45 0
149 147 148 0
-149 -147 0
-149 -148 0
150 -39 -149 0
-150 39 0
-150 149 0
151 39 149 0
-151 -39 0
-151 -149 0
152 150 151 0
-152 -150 0
-152 -151 0
153 -46 -40 0
-153 46 0
-153 40 0
154 -40 -52 0
-154 40 0
-154 52 0
155 -46 -52 0
-155 46 0
-155 52 0
156 154 155 0
-156 -154 0
-156 -155 0
157 153 -156 0
-157 -153 0
-157 156 0
158 -46 52 0
-158 46 0
-158 -52 0
159 -52 46 0
-159 52 0
-159 -46 0
160 159 158 0
-160 -159 0
-160 -158 0
161 -40 -160 0
-161 40 0
-161 160 0
162 40 160 0
-162 -40 0
-162 -160 0
163 161 162 0
-163 -161 0
-163 -162 0
164 -41 -47 0
-164 41 0
-164 47 0
165 -41 -53 0
-165 41 0
-165 53 0
166 -53 -47 0
-166 53 0
-166 47 0
167 166 165 0
-167 -166 0
-167 -165 0
168 164 -167 0
-168 -164 0
-168 167 0
169 -47 53 0
-169 47 0
-169 -53 0
170 -53 47 0
-170 53 0
-170 -47 0
171 169 170 0
-171 -169 0
-171 -170 0
172 -41 -171 0
-172 41 0
-172 171 0
173 41 171 0
-173 -41 0
-173 -171 0
174 172 173 0
-174 -172 0
-174 -173 0
175 -48 -42 0
-175 48 0
-175 42 0
176 -42 -54 0
-176 42 0
-176 54 0
177 -48 -54 0
-177 48 0
-177 54 0
178 176 177 0
-178 -176 0
-178 -177 0
179 175 -178 0
-179 -175 0
-179 178 0
180 -48 54 0
-180 48 0
-180 -54 0
181 -54 48 0
-181 54 0
-181 -48 0
182 180 181 0
-182 -180 0
-182 -181 0
183 -42 -182 0
-183 42 0
-183 182 0
184 42 182 0
-184 -42 0
-184 -182 0
185 183 184 0
-185 -183 0
-185 -184 0
186 -55 -49 0
-186 55 0
-186 49 0
187 -49 55 0
-187 49 0
-187 -55 0
188 -55 49 0
-188 55 0
-188 -49 0
189 188 187 0
-189 -188 0
-189 -187 0
190 -64 78 0
-190 64 0
-190 -78 0
191 64 78 0
-191 -64 0
-191 -78 0
192 -64 -78 0
-192 64 0
-192 78 0
193 192 191 0
-193 -192 0
-193 -191 0
194 72 89 0
-194 -72 0
-194 -89 0
195 -36 89 0
-195 36 0
-195 -89 0
196 -36 72 0
-196 36 0
-196 -72 0
197 196 195 0
-197 -196 0
-197 -195 0
198 -197 194 0
-198 197 0
-198 -194 0
199 36 72 0
-199 -36 0
-199 -72 0
200 -36 -72 0
-200 36 0
-200 72 0
201 200 199 0
-201 -200 0
-201 -199 0
202 89 -201 0
-202 -89 0
-202 201 0
203 -89 201 0
-203 89 0
-203 -201 0
204 203 202 0
-204 -203 0
-204 -202 0
205 83 100 0
-205 -83 0
-205 -100 0
206 130 100 0
-206 -130 0
-206 -100 0
207 130 83 0
-207 -130 0
-207 -83 0
208 207 206 0
-208 -207 0
-208 -206 0
209 205 -208 0
-209 -205 0
-209 208 0
210 -130 83 0
-210 130 0
-210 -83 0
211 130 -83 0
-211 -130 0
-211 83 0
212 210 211 0
-212 -210 0
-212 -211 0
213 100 -212 0
-213 -100 0
-213 212 0
214 -100 212 0
-214 100 0
-214 -212 0
215 214 213 0
-215 -214 0
-215 -213 0
216 94 111 0
-216 -94 0
-216 -111 0
217 111 141 0
-217 -111 0
-217 -141 0
218 94 141 0
-218 -94 0
-218 -141 0
219 218 217 0
-219 -218 0
-219 -217 0
220 216 -219 0
-220 -216 0
-220 219 0
221 94 -141 0
-221 -94 0
-221 141 0
222 -94 141 0
-222 94 0
-222 -141 0
223 221 222 0
-223 -221 0
-223 -222 0
224 111 -223 0
-224 -111 0
-224 223 0
225 -111 223 0
-225 111 0
-225 -223 0
226 225 224 0
-226 -225 0
-226 -224 0
227 105 122 0
-227 -105 0
-227 -122 0
228 122 152 0
-228 -122 0
-228 -152 0
229 105 152 0
-229 -105 0
-229 -152 0
230 229 228 0
-230 -229 0
-230 -228 0
231 227 -230 0
-231 -227 0
-231 230 0
232 105 -152 0
-232 -105 0
-232 152 0
233 -105 152 0
-233 105 0
-233 -152 0
234 232 233 0
-234 -232 0
-234 -233 0
235 122 -234 0
-235 -122 0
-235 234 0
236 -122 234 0
-236 122 0
-236 -234 0
237 235 236 0
-237 -235 0
-237 -236 0
238 126 116 0
-238 -126 0
-238 -116 0
239 126 163 0
-239 -126 0
-239 -163 0
240 116 163 0
-240 -116 0
-240 -163 0
241 239 240 0
-241 -239 0
-241 -240 0
242 238 -241 0
-242 -238 0
-242 241 0
243 116 -163 0
-243 -116 0
-243 163 0
244 -116 163 0
-244 116 0
-244 -163 0
245 243 244 0
-245 -243 0
-245 -244 0
246 126 -245 0
-246 -126 0
-246 245 0
247 -126 245 0
-247 126 0
-247 -245 0
248 246 247 0
-248 -246 0
-248 -247 0
249 -35 -123 0
-249 35 0
-249 123 0
250 -35 174 0
-250 35 0
-250 -174 0
251 -123 174 0
-251 123 0
-251 -174 0
252 250 251 0
-252 -250 0
-252 -251 0
253 249 -252 0
-253 -249 0
-253 252 0
254 -123 -174 0
-254 123 0
-254 174 0
255 123 174 0
-255 -123 0
-255 -174 0
256 254 255 0
-256 -254 0
-256 -255 0
257 -35 -256 0
-257 35 0
-257 256 0
258 35 256 0
-258 -35 0
-258 -256 0
259 258 257 0
-259 -258 0
-259 -257 0
260 -190 204 0
-260 190 0
-260 -204 0
261 190 204 0
-261 -190 0
-261 -204 0
262 -190 -204 0
-262 190 0
-262 204 0
263 262 261 0
-263 -262 0
-263 -261 0
264 198 215 0
-264 -198 0
-264 -215 0
265 -198 215 0
-265 198 0
-265 -215 0
266 198 -215 0
-266 -198 0
-266 215 0
267 266 265 0
-267 -266 0
-267 -265 0
268 209 226 0
-268 -209 0
-268 -226 0
269 -209 226 0
-269 209 0
-269 -226 0
270 209 -226 0
-270 -209 0
-270 226 0
271 270 269 0
-271 -270 0
-271 -269 0
272 237 220 0
-272 -237 0
-272 -220 0
273 -57 237 0
-273 57 0
-273 -237 0
274 -57 220 0
-274 57 0
-274 -220 0
275 273 274 0
-275 -273 0
-275 -274 0
276 -275 272 0
-276 275 0
-276 -272 0
277 57 220 0
-277 -57 0
-277 -220 0
278 -57 -220 0
-278 57 0
-278 220 0
279 278 277 0
-279 -278 0
-279 -277 0
280 -279 237 0
-280 279 0
-280 -237 0
281 279 -237 0
-281 -279 0
-281 237 0
282 281 280 0
-282 -281 0
-282 -280 0
283 248 231 0
-283 -248 0
-283 -231 0
284 -58 248 0
-284 58 0
-284 -248 0
285 -58 231 0
-285 58 0
-285 -231 0
286 284 285 0
-286 -284 0
-286 -285 0
287 -286 283 0
-287 286 0
-287 -283 0
288 58 231 0
-288 -58 0
-288 -231 0
289 -58 -231 0
-289 58 0
-289 231 0
290 289 288 0
-290 -289 0
-290 -288 0
291 248 -290 0
-291 -248 0
-291 290 0
292 -248 290 0
-292 248 0
-292 -290 0
293 291 292 0
-293 -291 0
-293 -292 0
294 259 242 0
-294 -259 0
-294 -242 0
295 -59 259 0
-295 59 0
-295 -259 0
296 -59 242 0
-296 59 0
-296 -242 0
297 295 296 0
-297 -295 0
-297 -296 0
298 -297 294 0
-298 297 0
-298 -294 0
299 59 242 0
-299 -59 0
-299 -242 0
300 -59 -242 0
-300 59 0
-300 242 0
301 300 299 0
-301 -300 0
-301 -299 0
302 -301 259 0
-302 301 0
-302 -259 0
303 301 -259 0
-303 -301 0
-303 259 0
304 302 303 0
-304 -302 0
-304 -303 0
305 185 253 0
-305 -185 0
-305 -253 0
306 -60 185 0
-306 60 0
-306 -185 0
307 -60 253 0
-307 60 0
-307 -253 0
308 306 307 0
-308 -306 0
-308 -307 0
309 305 -308 0
-309 -305 0
-309 308 0
310 60 253 0
-310 -60 0
-310 -253 0
311 -60 -253 0
-311 60 0
-311 253 0
312 310 311 0
-312 -310 0
-312 -311 0
313 185 -312 0
-313 -185 0
-313 312 0
314 -185 312 0
-314 185 0
-314 -312 0
315 313 314 0
-315 -313 0
-315 -314 0
316 -61 189 0
-316 61 0
-316 -189 0
317 61 189 0
-317 -61 0
-317 -189 0
318 -61 -189 0
-318 61 0
-318 189 0
319 318 317 0
-319 -318 0
-319 -317 0
320 -62 -56 0
-320 62 0
-320 56 0
321 -56 62 0
-321 56 0
-321 -62 0
322 -62 56 0
-322 62 0
-322 -56 0
323 322 321 0
-323 -322 0
-323 -321 0
324 267 -260 0
-324 -267 0
-324 260 0
325 267 260 0
-325 -267 0
-325 -260 0
326 -267 -260 0
-326 267 0
-326 260 0
327 326 325 0
-327 -326 0
-327 -325 0
328 -264 271 0
-328 264 0
-328 -271 0
329 -127 271 0
-329 127 0
-329 -271 0
330 -127 -264 0
-330 127 0
-330 264 0
331 330 329 0
-331 -330 0
-331 -329 0
332 328 -331 0
-332 -328 0
-332 331 0
333 127 -264 0
-333 -127 0
-333 264 0
334 -127 264 0
-334 127 0
-334 -264 0
335 333 334 0
-335 -333 0
-335 -334 0
336 -335 271 0
-336 335 0
-336 -271 0
337 335 -271 0
-337 -335 0
-337 271 0
338 337 336 0
-338 -337 0
-338 -336 0
339 -268 282 0
-339 268 0
-339 -282 0
340 135 282 0
-340 -135 0
-340 -282 0
341 135 -268 0
-341 -135 0
-341 268 0
342 341 340 0
-342 -341 0
-342 -340 0
343 339 -342 0
-343 -339 0
-343 342 0
344 -135 -268 0
-344 135 0
-344 268 0
345 135 268 0
-345 -135 0
-345 -268 0
346 345 344 0
-346 -345 0
-346 -344 0
347 282 -346 0
-347 -282 0
-347 346 0
348 -282 346 0
-348 282 0
-348 -346 0
349 347 348 0
-349 -347 0
-349 -348 0
350 293 276 0
-350 -293 0
-350 -276 0
351 146 293 0
-351 -146 0
-351 -293 0
352 146 276 0
-352 -146 0
-352 -276 0
353 351 352 0
-353 -351 0
-353 -352 0
354 350 -353 0
-354 -350 0
-354 353 0
355 -146 276 0
-355 146 0
-355 -276 0
356 146 -276 0
-356 -146 0
-356 276 0
357 355 356 0
-357 -355 0
-357 -356 0
358 293 -357 0
-358 -293 0
-358 357 0
359 -293 357 0
-359 293 0
-359 -357 0
360 359 358 0
-360 -359 0
-360 -358 0
361 287 304 0
-361 -287 0
-361 -304 0
362 157 304 0
-362 -157 0
-362 -304 0
363 157 287 0
-363 -157 0
-363 -287 0
364 362 363 0
-364 -362 0
-364 -363 0
365 -364 361 0
-365 364 0
-365 -361 0
366 -157 287 0
-366 157 0
-366 -287 0
367 157 -287 0
-367 -157 0
-367 287 0
368 367 366 0
-368 -367 0
-368 -366 0
369 -368 304 0
-369 368 0
-369 -304 0
370 368 -304 0
-370 -368 0
-370 304 0
371 370 369 0
-371 -370 0
-371 -369 0
372 315 298 0
-372 -315 0
-372 -298 0
373 168 315 0
-373 -168 0
-373 -315 0
374 168 298 0
-374 -168 0
-374 -298 0
375 374 373 0
-375 -374 0
-375 -373 0
376 -375 372 0
-376 375 0
-376 -372 0
377 -168 298 0
-377 168 0
-377 -298 0
378 168 -298 0
-378 -168 0
-378 298 0
379 378 377 0
-379 -378 0
-379 -377 0
380 -379 315 0
-380 379 0
-380 -315 0
381 379 -315 0
-381 -379 0
-381 315 0
382 381 380 0
-382 -381 0
-382 -380 0
383 319 309 0
-383 -319 0
-383 -309 0
384 179 319 0
-384 -179 0
-384 -319 0
385 179 309 0
-385 -179 0
-385 -309 0
386 385 384 0
-386 -385 0
-386 -384 0
387 -386 383 0
-387 386 0
-387 -383 0
388 -179 309 0
-388 179 0
-388 -309 0
389 179 -309 0
-389 -179 0
-389 309 0
390 389 388 0
-390 -389 0
-390 -388 0
391 319 -390 0
-391 -319 0
-391 390 0
392 -319 390 0
-392 319 0
-392 -390 0
393 391 392 0
-393 -391 0
-393 -392 0
394 323 -316 0
-394 -323 0
-394 316 0
395 -186 323 0
-395 186 0
-395 -323 0
396 -186 -316 0
-396 186 0
-396 316 0
397 395 396 0
-397 -395 0
-397 -396 0
398 394 -397 0
-398 -394 0
-398 397 0
399 186 -316 0
-399 -186 0
-399 316 0
400 -186 316 0
-400 186 0
-400 -316 0
401 400 399 0
-401 -400 0
-401 -399 0
402 323 -401 0
-402 -323 0
-402 401 0
403 -323 401 0
-403 323 0
-403 -401 0
404 403 402 0
-404 -403 0
-404 -402 0
405 -63 -320 0
-405 63 0
-405 320 0
406 -63 320 0
-406 63 0
-406 -320 0
407 63 -320 0
-407 -63 0
-407 320 0
408 407 406 0
-408 -407 0
-408 -406 0
409 338 324 0
-409 -338 0
-409 -324 0
410 -338 -324 0
-410 338 0
-410 324 0
411 410 409 0
-411 -410 0
-411 -409 0
412 338 -324 0
-412 -338 0
-412 324 0
413 -332 349 0
-413 332 0
-413 -349 0
414 332 -349 0
-414 -332 0
-414 349 0
415 414 413 0
-415 -414 0
-415 -413 0
416 -412 -415 0
-416 412 0
-416 415 0
417 412 415 0
-417 -412 0
-417 -415 0
418 416 417 0
-418 -416 0
-418 -417 0
419 -412 349 0
-419 412 0
-419 -349 0
420 -412 332 0
-420 412 0
-420 -332 0
421 332 349 0
-421 -332 0
-421 -349 0
422 420 421 0
-422 -420 0
-422 -421 0
423 419 -422 0
-423 -419 0
-423 422 0
424 -343 360 0
-424 343 0
-424 -360 0
425 343 -360 0
-425 -343 0
-425 360 0
426 424 425 0
-426 -424 0
-426 -425 0
427 423 -426 0
-427 -423 0
-427 426 0
428 -423 426 0
-428 423 0
-428 -426 0
429 427 428 0
-429 -427 0
-429 -428 0
430 423 360 0
-430 -423 0
-430 -360 0
431 423 343 0
-431 -423 0
-431 -343 0
432 343 360 0
-432 -343 0
-432 -360 0
433 431 432 0
-433 -431 0
-433 -432 0
434 -433 430 0
-434 433 0
-434 -430 0
435 371 -354 0
-435 -371 0
-435 354 0
436 -371 354 0
-436 371 0
-436 -354 0
437 435 436 0
-437 -435 0
-437 -436 0
438 434 -437 0
-438 -434 0
-438 437 0
439 -434 437 0
-439 434 0
-439 -437 0
440 438 439 0
-440 -438 0
-440 -439 0
441 371 434 0
-441 -371 0
-441 -434 0
442 434 354 0
-442 -434 0
-442 -354 0
443 371 354 0
-443 -371 0
-443 -354 0
444 443 442 0
-444 -443 0
-444 -442 0
445 441 -444 0
-445 -441 0
-445 444 0
446 -365 382 0
-446 365 0
-446 -382 0
447 365 -382 0
-447 -365 0
-447 382 0
448 446 447 0
-448 -446 0
-448 -447 0
449 445 -448 0
-449 -445 0
-449 448 0
450 -445 448 0
-450 445 0
-450 -448 0
451 449 450 0
-451 -449 0
-451 -450 0
452 445 382 0
-452 -445 0
-452 -382 0
453 365 445 0
-453 -365 0
-453 -445 0
454 365 382 0
-454 -365 0
-454 -382 0
455 453 454 0
-455 -453 0
-455 -454 0
456 -455 452 0
-456 455 0
-456 -452 0
457 393 -376 0
-457 -393 0
-457 376 0
458 -393 376 0
-458 393 0
-458 -376 0
459 458 457 0
-459 -458 0
-459 -457 0
460 456 -459 0
-460 -456 0
-460 459 0
461 -456 459 0
-461 456 0
-461 -459 0
462 461 460 0
-462 -461 0
-462 -460 0
463 456 393 0
-463 -456 0
-463 -393 0
464 456 376 0
-464 -456 0
-464 -376 0
465 393 376 0
-465 -393 0
-465 -376 0
466 465 464 0
-466 -465 0
-466 -464 0
467 463 -466 0
-467 -463 0
-467 466 0
468 404 -387 0
-468 -404 0
-468 387 0
469 -404 387 0
-469 404 0
-469 -387 0
470 468 469 0
-470 -468 0
-470 -469 0
471 -470 467 0
-471 470 0
-471 -467 0
472 470 -467 0
-472 -470 0
-472 467 0
473 472 471 0
-473 -472 0
-473 -471 0
474 404 467 0
-474 -404 0
-474 -467 0
475 387 467 0
-475 -387 0
-475 -467 0
476 404 387 0
-476 -404 0
-476 -387 0
477 475 476 0
-477 -475 0
-477 -476 0
478 -477 474 0
-478 477 0
-478 -474 0
479 408 -398 0
-479 -408 0
-479 398 0
480 -408 398 0
-480 408 0
-480 -398 0
481 480 479 0
-481 -480 0
-481 -479 0
482 478 -481 0
-482 -478 0
-482 481 0
483 -478 481 0
-483 478 0
-483 -481 0
484 482 483 0
-484 -482 0
-484 -483 0
485 408 478 0
-485 -408 0
-485 -478 0
486 398 478 0
-486 -398 0
-486 -478 0
487 408 398 0
-487 -408 0
-487 -398 0
488 486 487 0
-488 -486 0
-488 -487 0
489 -488 485 0
-489 488 0
-489 -485 0
490 405 489 0
-490 -405 0
-490 -489 0
491 -405 -489 0
-491 405 0
-491 489 0
492 490 491 0
-492 -490 0
-492 -491 0
493 -405 489 0
-493 405 0
-493 -489 0
-494 15 0
494 -15 0
-495 -67 0
495 67 0
-496 -193 0
496 193 0
-497 -263 0
497 263 0
-498 -327 0
498 327 0
-499 -411 0
499 411 0
-500 -418 0
500 418 0
-501 -429 0
501 429 0
-502 -440 0
502 440 0
-503 -451 0
503 451 0
-504 -462 0
504 462 0
-505 -473 0
505 473 0
-506 -484 0
506 484 0
-507 -492 0
507 492 0
494 0
495 0
496 0
-497 0
-498 0
-499 0
500 0
501 0
502 0
-503 0
-504 0
-505 0
-506 0
-507 0
